165
10000
4469
1796
6106
1209
5100
525
2557
3887
579
1076
528
4910
6584
1424
1807
1051
8278
4226
843
3393
3802
2774
80
3782
2932
3508
3386
2793
6752
8862
4714
6218
4652
5952
7754
1859
1718
703
6094
9916
3895
4157
2411
341
6469
371
1050
8265
3
5036
6105
4196
5387
1387
428
5405
4400
1073
7443
6464
1569
5286
3003
2695
2470
5449
447
7715
1138
282
5441
8223
163
8057
84
5600
2246
224
5554
1662
7213
4048
1759
4529
4464
5772
981
3248
5396
5248
2285
1528
2101
3453
245
4604
1735
6466
2618
1039
2415
1352
4964
354
954
1198
1440
4882
838
6039
4377
167
6613
3109
3534
482
1001
3486
4105
8613
149
3536
2892
2744
6121
3314
3151
1619
3675
6384
3069
593
4347
997
4450
302
1943
3958
766
3878
9646
9407
4136
3906
9572
7382
9837
7207
1637
6864
1139
1757
1847
4394
4262
5653
1154
3694
4350
568
4426
2188
7530
3136
7572
